
-3.18
-3.1
-3.1
-3.08
-3.02
-3.0
-2.98
-2.96
-2.96
-2.96
-2.96
-2.92
-2.92
-2.92
-2.9
-2.9
-2.88
-2.88
-2.88
-2.82
-2.82
-2.82
-2.82
-2.82
-2.82
-2.82
-2.82
-2.82
-2.82
-2.82
-2.82
-2.82
-2.82
-2.82
-2.82
-2.82
-2.82
-2.82
-2.82
-2.82